(set-logic QF_S)
(declare-fun T_15 () Bool)
(declare-fun T_16 () Bool)
(declare-fun T_SELECT_3 () Bool)
(declare-fun PCTEMP_LHS_5 () Int)
(declare-fun T0_27 () String)
(declare-fun T1_27 () String)
(declare-fun var_0xINPUT_10485 () String)
(assert (= var_0xINPUT_10485 (str.++ T0_27 T1_27)))
(assert (not (str.in.re T1_27 (str.to.re "__utmx=169413169"))))
(assert T_16)
(assert (= T_16 (not T_15)))
(assert (= T_15 (< (- 1) PCTEMP_LHS_5)))
(assert (= PCTEMP_LHS_5 (- 1)))
(assert (= T_SELECT_3 (not (= PCTEMP_LHS_5 (- 1)))))
(assert (= 0 (str.len T0_27))) ; len 0
(assert (not T_SELECT_3))
(check-sat)
